HUN,8,6,438
3,10,5,15,4,25,0,19,2,18,1,26
1,2,2,23,4,8,3,1,5,12,0,9
3,24,2,30,0,5,1,13,5,12,4,14
3,19,1,7,5,1,0,1,4,30,2,18
2,4,1,29,0,10,4,10,3,14,5,16
2,10,0,2,1,19,5,20,3,18,4,4
0,3,3,11,5,22,2,8,4,8,1,11
1,22,0,26,2,26,4,3,5,24,3,17
